db/data/17329966110613222111405618012809135.z3.out
-------------------
2500.141153285
